c description: Random 3-CNF over 21 variables and 89 clauses
c generator: CNFgen (0.9.2)
c copyright: (C) 2012-2022 Massimo Lauria <massimo.lauria@uniroma1.it>
c url: https://massimolauria.net/cnfgen
c command line: cnfgen --output CNF_4.28/21_bit_89_77.cnf randkcnf 3 21 89
c
p cnf 21 89
5 11 13 0
-5 -7 -8 0
9 -10 12 0
-1 -6 12 0
-2 15 -17 0
1 7 15 0
-3 -17 -20 0
9 13 18 0
-2 -6 15 0
1 -2 14 0
-3 -9 19 0
-3 14 15 0
7 17 -21 0
12 -14 17 0
2 12 15 0
4 -6 -7 0
-6 9 11 0
-6 -8 10 0
-6 -17 -20 0
-2 4 10 0
-11 17 21 0
4 -14 17 0
5 -14 17 0
-1 -8 11 0
2 12 -14 0
-8 12 15 0
-7 -14 -21 0
1 8 -16 0
5 -11 20 0
-1 -10 13 0
-8 -11 -14 0
7 8 -15 0
9 -14 17 0
-6 -9 10 0
8 18 19 0
-10 -13 -21 0
2 13 20 0
-7 12 19 0
-5 10 20 0
9 10 19 0
4 -16 21 0
10 12 14 0
-1 8 -12 0
3 -19 20 0
-6 10 17 0
-15 -17 20 0
-4 9 -10 0
-12 13 -15 0
6 -8 16 0
6 -18 -20 0
-5 -9 11 0
-4 -12 -17 0
5 -9 16 0
-4 14 20 0
-13 -19 20 0
-1 4 20 0
12 17 -20 0
-10 -15 19 0
-3 4 7 0
-2 -16 21 0
-1 4 -16 0
-1 -9 20 0
-3 -5 8 0
-9 -15 -17 0
-1 7 15 0
2 7 -16 0
10 -17 -19 0
1 -7 -13 0
3 -17 19 0
3 -14 -15 0
3 7 -11 0
-2 -5 17 0
5 -14 -18 0
-12 13 16 0
1 2 4 0
-3 10 -20 0
-3 -14 16 0
-4 -14 19 0
-1 14 -21 0
-1 12 19 0
-9 -13 -20 0
-6 -9 -16 0
-6 -13 -16 0
-6 -11 21 0
6 10 -20 0
-12 17 -18 0
2 7 14 0
8 -15 21 0
8 19 -21 0
